/*********************************************
 * OPL 12.6.0.0 Data
 * Author: Adrian Rodriguez Bazaga, Pau Rodriguez Esmerats
 * Creation Date: 06/12/2017 at 23:05:00
 *********************************************/

nNurses=267;
maxConsec=2;
maxPresence=7;
maxHours=5;
minHours=1;
hours=24;
demand= [45 50 69 71 50 69 71 55 51 32 4 8 7 11 7 6 6 5 3 3 43 77 34 62  ];
